c Reduced graph for 5-FullIns_4_4 generated by Cyril Grelier
p edge 65 380
e 1 10
e 1 12
e 1 19
e 1 20
e 1 21
e 1 22
e 1 23
e 1 24
e 1 31
e 1 32
e 1 33
e 1 34
e 1 35
e 1 36
e 1 37
e 1 42
e 1 43
e 1 44
e 1 45
e 1 46
e 1 47
e 1 48
e 1 53
e 1 54
e 1 55
e 1 56
e 1 57
e 1 58
e 1 59
e 1 60
e 1 61
e 1 62
e 1 63
e 1 64
e 1 65
e 2 11
e 2 13
e 2 14
e 2 15
e 2 16
e 2 17
e 2 18
e 2 25
e 2 26
e 2 27
e 2 28
e 2 29
e 2 30
e 2 31
e 2 32
e 2 33
e 2 34
e 2 35
e 2 36
e 2 37
e 2 42
e 2 43
e 2 44
e 2 45
e 2 46
e 2 47
e 2 49
e 2 50
e 2 51
e 2 52
e 2 62
e 2 63
e 2 64
e 2 65
e 3 4
e 3 5
e 3 6
e 3 7
e 3 8
e 3 9
e 3 13
e 3 14
e 3 15
e 3 16
e 3 17
e 3 18
e 3 19
e 3 20
e 3 21
e 3 22
e 3 23
e 3 24
e 3 32
e 3 33
e 3 34
e 3 35
e 3 36
e 3 37
e 3 38
e 3 39
e 3 49
e 3 50
e 3 58
e 3 59
e 3 62
e 3 63
e 4 5
e 4 6
e 4 7
e 4 8
e 4 9
e 4 11
e 4 12
e 4 14
e 4 15
e 4 16
e 4 17
e 4 18
e 4 20
e 4 21
e 4 22
e 4 23
e 4 24
e 4 31
e 4 33
e 4 34
e 4 35
e 4 36
e 4 37
e 5 6
e 5 7
e 5 8
e 5 9
e 5 11
e 5 12
e 5 13
e 5 15
e 5 16
e 5 17
e 5 18
e 5 19
e 5 21
e 5 22
e 5 23
e 5 24
e 5 31
e 5 32
e 5 34
e 5 35
e 5 36
e 5 37
e 6 7
e 6 8
e 6 9
e 6 11
e 6 12
e 6 13
e 6 14
e 6 16
e 6 17
e 6 18
e 6 19
e 6 20
e 6 22
e 6 23
e 6 24
e 6 31
e 6 32
e 6 33
e 6 35
e 6 36
e 6 37
e 7 8
e 7 9
e 7 11
e 7 12
e 7 13
e 7 14
e 7 15
e 7 17
e 7 18
e 7 19
e 7 20
e 7 21
e 7 23
e 7 24
e 7 31
e 7 32
e 7 33
e 7 34
e 7 36
e 7 37
e 8 9
e 8 11
e 8 12
e 8 13
e 8 14
e 8 15
e 8 16
e 8 18
e 8 19
e 8 20
e 8 21
e 8 22
e 8 24
e 8 31
e 8 32
e 8 33
e 8 34
e 8 35
e 8 37
e 9 11
e 9 12
e 9 13
e 9 14
e 9 15
e 9 16
e 9 17
e 9 19
e 9 20
e 9 21
e 9 22
e 9 23
e 9 31
e 9 32
e 9 33
e 9 34
e 9 35
e 9 36
e 10 11
e 10 13
e 10 14
e 10 15
e 10 16
e 10 17
e 10 18
e 10 25
e 10 26
e 10 27
e 10 28
e 10 29
e 10 30
e 10 49
e 10 50
e 10 51
e 10 52
e 11 19
e 11 20
e 11 21
e 11 22
e 11 23
e 11 24
e 11 38
e 11 39
e 11 58
e 11 59
e 12 13
e 12 14
e 12 15
e 12 16
e 12 17
e 12 18
e 12 38
e 12 39
e 12 49
e 12 50
e 13 20
e 13 21
e 13 22
e 13 23
e 13 24
e 14 19
e 14 21
e 14 22
e 14 23
e 14 24
e 15 19
e 15 20
e 15 22
e 15 23
e 15 24
e 16 19
e 16 20
e 16 21
e 16 23
e 16 24
e 17 19
e 17 20
e 17 21
e 17 22
e 17 24
e 18 19
e 18 20
e 18 21
e 18 22
e 18 23
e 25 26
e 25 27
e 25 28
e 25 29
e 25 30
e 25 43
e 25 44
e 25 45
e 25 46
e 25 47
e 26 27
e 26 28
e 26 29
e 26 30
e 26 42
e 26 44
e 26 45
e 26 46
e 26 47
e 27 28
e 27 29
e 27 30
e 27 42
e 27 43
e 27 45
e 27 46
e 27 47
e 28 29
e 28 30
e 28 42
e 28 43
e 28 44
e 28 46
e 28 47
e 29 30
e 29 42
e 29 43
e 29 44
e 29 45
e 29 47
e 30 42
e 30 43
e 30 44
e 30 45
e 30 46
e 31 38
e 31 39
e 38 41
e 38 52
e 38 61
e 38 65
e 39 40
e 39 51
e 39 60
e 39 64
e 40 41
e 40 50
e 40 52
e 40 59
e 40 61
e 40 63
e 40 65
e 41 49
e 41 51
e 41 58
e 41 60
e 41 62
e 41 64
e 48 53
e 48 54
e 48 55
e 48 56
e 48 57
e 49 61
e 50 60
e 51 59
e 51 61
e 52 58
e 52 60
e 53 54
e 53 55
e 53 56
e 53 57
e 54 55
e 54 56
e 54 57
e 55 56
e 55 57
e 56 57
